
;this file is automatically generated: Mon Nov 02 10:36:07 CST 2020

;declarations generated

(declare-fun oclExcludes ( Int Int) Bool)
(declare-fun type_87bbf17f_a503_4a49_8454_3216c996dfd4_Class55 ( Int) Bool)
(declare-fun Cardinality ( Int) Int)
(declare-fun type_87bbf17f_a503_4a49_8454_3216c996dfd4_Class10 ( Int) Bool)
(declare-fun obj_3926dea9_02cc_4456_a37b_ca39f2bac99d ( Int) Int)
(declare-fun type_87bbf17f_a503_4a49_8454_3216c996dfd4_Class54 ( Int) Bool)
(declare-fun type_87bbf17f_a503_4a49_8454_3216c996dfd4_Class53 ( Int) Bool)
(declare-fun type_87bbf17f_a503_4a49_8454_3216c996dfd4_Class52 ( Int) Bool)
(declare-fun type_87bbf17f_a503_4a49_8454_3216c996dfd4_Class51 ( Int) Bool)
(declare-fun type_87bbf17f_a503_4a49_8454_3216c996dfd4_Class50 ( Int) Bool)
(declare-fun type_87bbf17f_a503_4a49_8454_3216c996dfd4_Class49 ( Int) Bool)
(declare-fun type_87bbf17f_a503_4a49_8454_3216c996dfd4_Class48 ( Int) Bool)
(declare-fun type_87bbf17f_a503_4a49_8454_3216c996dfd4_Class47 ( Int) Bool)
(declare-fun type_87bbf17f_a503_4a49_8454_3216c996dfd4_Class46 ( Int) Bool)
(declare-fun type_87bbf17f_a503_4a49_8454_3216c996dfd4_Class45 ( Int) Bool)
(declare-fun type_87bbf17f_a503_4a49_8454_3216c996dfd4_Class44 ( Int) Bool)
(declare-fun type_87bbf17f_a503_4a49_8454_3216c996dfd4_Class43 ( Int) Bool)
(declare-fun type_87bbf17f_a503_4a49_8454_3216c996dfd4_Class42 ( Int) Bool)
(declare-fun type_87bbf17f_a503_4a49_8454_3216c996dfd4_Class41 ( Int) Bool)
(declare-fun type_87bbf17f_a503_4a49_8454_3216c996dfd4_Class40 ( Int) Bool)
(declare-fun type_87bbf17f_a503_4a49_8454_3216c996dfd4_Class39 ( Int) Bool)
(declare-fun type_87bbf17f_a503_4a49_8454_3216c996dfd4_Class38 ( Int) Bool)
(declare-fun type_87bbf17f_a503_4a49_8454_3216c996dfd4_Class37 ( Int) Bool)
(declare-fun type_87bbf17f_a503_4a49_8454_3216c996dfd4_Class36 ( Int) Bool)
(declare-fun type_87bbf17f_a503_4a49_8454_3216c996dfd4_Class35 ( Int) Bool)
(declare-fun type_87bbf17f_a503_4a49_8454_3216c996dfd4_Class34 ( Int) Bool)
(declare-fun type_87bbf17f_a503_4a49_8454_3216c996dfd4_Class33 ( Int) Bool)
(declare-fun type_87bbf17f_a503_4a49_8454_3216c996dfd4_Class32 ( Int) Bool)
(declare-fun type_87bbf17f_a503_4a49_8454_3216c996dfd4_Class31 ( Int) Bool)
(declare-fun type_87bbf17f_a503_4a49_8454_3216c996dfd4_Class30 ( Int) Bool)
(declare-fun type_87bbf17f_a503_4a49_8454_3216c996dfd4_Class29 ( Int) Bool)
(declare-fun type_87bbf17f_a503_4a49_8454_3216c996dfd4_Class28 ( Int) Bool)
(declare-fun type_87bbf17f_a503_4a49_8454_3216c996dfd4_Class27 ( Int) Bool)
(declare-fun type_87bbf17f_a503_4a49_8454_3216c996dfd4_Class26 ( Int) Bool)
(declare-fun type_87bbf17f_a503_4a49_8454_3216c996dfd4_Class25 ( Int) Bool)
(declare-fun type_87bbf17f_a503_4a49_8454_3216c996dfd4_Class24 ( Int) Bool)
(declare-fun type_87bbf17f_a503_4a49_8454_3216c996dfd4_Class23 ( Int) Bool)
(declare-fun type_87bbf17f_a503_4a49_8454_3216c996dfd4_Class22 ( Int) Bool)
(declare-fun type_87bbf17f_a503_4a49_8454_3216c996dfd4_Class21 ( Int) Bool)
(declare-fun type_87bbf17f_a503_4a49_8454_3216c996dfd4_Class20 ( Int) Bool)
(declare-fun type_87bbf17f_a503_4a49_8454_3216c996dfd4_Class18 ( Int) Bool)
(declare-fun type_87bbf17f_a503_4a49_8454_3216c996dfd4_Class17 ( Int) Bool)
(declare-fun type_87bbf17f_a503_4a49_8454_3216c996dfd4_Class16 ( Int) Bool)
(declare-fun type_87bbf17f_a503_4a49_8454_3216c996dfd4_Class15 ( Int) Bool)
(declare-fun type_87bbf17f_a503_4a49_8454_3216c996dfd4_Class14 ( Int) Bool)
(declare-fun type_87bbf17f_a503_4a49_8454_3216c996dfd4_Class13 ( Int) Bool)
(declare-fun type_87bbf17f_a503_4a49_8454_3216c996dfd4_Class12 ( Int) Bool)
(declare-fun type_87bbf17f_a503_4a49_8454_3216c996dfd4_Class11 ( Int) Bool)
(declare-fun type_87bbf17f_a503_4a49_8454_3216c996dfd4_Class19 ( Int) Bool)
(declare-fun type_87bbf17f_a503_4a49_8454_3216c996dfd4_Class9 ( Int) Bool)
(declare-fun type_87bbf17f_a503_4a49_8454_3216c996dfd4_Class8 ( Int) Bool)
(declare-fun type_87bbf17f_a503_4a49_8454_3216c996dfd4_Class3 ( Int) Bool)
(declare-fun type_87bbf17f_a503_4a49_8454_3216c996dfd4_Class2 ( Int) Bool)
(declare-fun type_87bbf17f_a503_4a49_8454_3216c996dfd4_Class1 ( Int) Bool)
(declare-fun type_87bbf17f_a503_4a49_8454_3216c996dfd4_Class0 ( Int) Bool)
(declare-fun type_87bbf17f_a503_4a49_8454_3216c996dfd4_Class7 ( Int) Bool)
(declare-fun type_87bbf17f_a503_4a49_8454_3216c996dfd4_Class6 ( Int) Bool)
(declare-fun type_87bbf17f_a503_4a49_8454_3216c996dfd4_Class5 ( Int) Bool)
(declare-fun type_87bbf17f_a503_4a49_8454_3216c996dfd4_Class4 ( Int) Bool)
(declare-fun oclSelect ( Int Bool) Int)
(declare-fun Enum0 ( Int) Int)
(declare-fun Enum1 ( Int) Int)
(declare-fun Enum2 ( Int) Int)
(declare-fun container_ ( Int) Int)
(declare-fun oclIncludes ( Int Int) Bool)
(declare-fun ObjAt ( Int Int) Int)

;formula(s) generated
(assert (forall ((p Int)) (=> ( type_87bbf17f_a503_4a49_8454_3216c996dfd4_Class33 p )  (and (>= ( Enum0 ( obj_3926dea9_02cc_4456_a37b_ca39f2bac99d p )  )  0) (<= ( Enum0 ( obj_3926dea9_02cc_4456_a37b_ca39f2bac99d p )  )  3)))))
(assert (! (forall ((v Int)) (=> (and (and ( type_87bbf17f_a503_4a49_8454_3216c996dfd4_Class33 v )  ( type_87bbf17f_a503_4a49_8454_3216c996dfd4_Class22 v ) ) ( type_87bbf17f_a503_4a49_8454_3216c996dfd4_Class39 v ) ) (= ( Enum0 ( obj_3926dea9_02cc_4456_a37b_ca39f2bac99d v )  )  1))):named l0))
(assert (! (forall ((v Int)) (=> (and (and ( type_87bbf17f_a503_4a49_8454_3216c996dfd4_Class33 v )  ( type_87bbf17f_a503_4a49_8454_3216c996dfd4_Class22 v ) ) ( type_87bbf17f_a503_4a49_8454_3216c996dfd4_Class39 v ) ) (not (= ( Enum0 ( obj_3926dea9_02cc_4456_a37b_ca39f2bac99d v )  )  1) ))):named l1))
(assert (! (exists ((o Int)) ( type_87bbf17f_a503_4a49_8454_3216c996dfd4_Class0 ( obj_3926dea9_02cc_4456_a37b_ca39f2bac99d o )  ) ):named c0))
(assert (! (exists ((o Int)) (and (and (and (and (and ( type_87bbf17f_a503_4a49_8454_3216c996dfd4_Class1 ( obj_3926dea9_02cc_4456_a37b_ca39f2bac99d o )  )  ( type_87bbf17f_a503_4a49_8454_3216c996dfd4_Class45 ( obj_3926dea9_02cc_4456_a37b_ca39f2bac99d o )  ) ) ( type_87bbf17f_a503_4a49_8454_3216c996dfd4_Class12 ( obj_3926dea9_02cc_4456_a37b_ca39f2bac99d o )  ) ) ( type_87bbf17f_a503_4a49_8454_3216c996dfd4_Class33 ( obj_3926dea9_02cc_4456_a37b_ca39f2bac99d o )  ) ) ( type_87bbf17f_a503_4a49_8454_3216c996dfd4_Class22 ( obj_3926dea9_02cc_4456_a37b_ca39f2bac99d o )  ) ) ( type_87bbf17f_a503_4a49_8454_3216c996dfd4_Class39 ( obj_3926dea9_02cc_4456_a37b_ca39f2bac99d o )  ) )):named c1))
(assert (! (exists ((o Int)) (and (and (and (and (and (and (and (and (and ( type_87bbf17f_a503_4a49_8454_3216c996dfd4_Class10 ( obj_3926dea9_02cc_4456_a37b_ca39f2bac99d o )  )  ( type_87bbf17f_a503_4a49_8454_3216c996dfd4_Class45 ( obj_3926dea9_02cc_4456_a37b_ca39f2bac99d o )  ) ) ( type_87bbf17f_a503_4a49_8454_3216c996dfd4_Class12 ( obj_3926dea9_02cc_4456_a37b_ca39f2bac99d o )  ) ) ( type_87bbf17f_a503_4a49_8454_3216c996dfd4_Class55 ( obj_3926dea9_02cc_4456_a37b_ca39f2bac99d o )  ) ) ( type_87bbf17f_a503_4a49_8454_3216c996dfd4_Class33 ( obj_3926dea9_02cc_4456_a37b_ca39f2bac99d o )  ) ) ( type_87bbf17f_a503_4a49_8454_3216c996dfd4_Class22 ( obj_3926dea9_02cc_4456_a37b_ca39f2bac99d o )  ) ) ( type_87bbf17f_a503_4a49_8454_3216c996dfd4_Class29 ( obj_3926dea9_02cc_4456_a37b_ca39f2bac99d o )  ) ) ( type_87bbf17f_a503_4a49_8454_3216c996dfd4_Class39 ( obj_3926dea9_02cc_4456_a37b_ca39f2bac99d o )  ) ) ( type_87bbf17f_a503_4a49_8454_3216c996dfd4_Class50 ( obj_3926dea9_02cc_4456_a37b_ca39f2bac99d o )  ) ) ( type_87bbf17f_a503_4a49_8454_3216c996dfd4_Class41 ( obj_3926dea9_02cc_4456_a37b_ca39f2bac99d o )  ) )):named c2))
(assert (! (exists ((o Int)) ( type_87bbf17f_a503_4a49_8454_3216c996dfd4_Class11 ( obj_3926dea9_02cc_4456_a37b_ca39f2bac99d o )  ) ):named c3))
(assert (! (exists ((o Int)) (and (and (and ( type_87bbf17f_a503_4a49_8454_3216c996dfd4_Class12 ( obj_3926dea9_02cc_4456_a37b_ca39f2bac99d o )  )  ( type_87bbf17f_a503_4a49_8454_3216c996dfd4_Class33 ( obj_3926dea9_02cc_4456_a37b_ca39f2bac99d o )  ) ) ( type_87bbf17f_a503_4a49_8454_3216c996dfd4_Class22 ( obj_3926dea9_02cc_4456_a37b_ca39f2bac99d o )  ) ) ( type_87bbf17f_a503_4a49_8454_3216c996dfd4_Class39 ( obj_3926dea9_02cc_4456_a37b_ca39f2bac99d o )  ) )):named c4))
(assert (! (exists ((o Int)) (and (and (and (and (and (and (and (and (and ( type_87bbf17f_a503_4a49_8454_3216c996dfd4_Class13 ( obj_3926dea9_02cc_4456_a37b_ca39f2bac99d o )  )  ( type_87bbf17f_a503_4a49_8454_3216c996dfd4_Class45 ( obj_3926dea9_02cc_4456_a37b_ca39f2bac99d o )  ) ) ( type_87bbf17f_a503_4a49_8454_3216c996dfd4_Class12 ( obj_3926dea9_02cc_4456_a37b_ca39f2bac99d o )  ) ) ( type_87bbf17f_a503_4a49_8454_3216c996dfd4_Class55 ( obj_3926dea9_02cc_4456_a37b_ca39f2bac99d o )  ) ) ( type_87bbf17f_a503_4a49_8454_3216c996dfd4_Class33 ( obj_3926dea9_02cc_4456_a37b_ca39f2bac99d o )  ) ) ( type_87bbf17f_a503_4a49_8454_3216c996dfd4_Class22 ( obj_3926dea9_02cc_4456_a37b_ca39f2bac99d o )  ) ) ( type_87bbf17f_a503_4a49_8454_3216c996dfd4_Class29 ( obj_3926dea9_02cc_4456_a37b_ca39f2bac99d o )  ) ) ( type_87bbf17f_a503_4a49_8454_3216c996dfd4_Class39 ( obj_3926dea9_02cc_4456_a37b_ca39f2bac99d o )  ) ) ( type_87bbf17f_a503_4a49_8454_3216c996dfd4_Class50 ( obj_3926dea9_02cc_4456_a37b_ca39f2bac99d o )  ) ) ( type_87bbf17f_a503_4a49_8454_3216c996dfd4_Class41 ( obj_3926dea9_02cc_4456_a37b_ca39f2bac99d o )  ) )):named c5))
(assert (! (exists ((o Int)) (and (and (and (and (and (and (and (and (and ( type_87bbf17f_a503_4a49_8454_3216c996dfd4_Class14 ( obj_3926dea9_02cc_4456_a37b_ca39f2bac99d o )  )  ( type_87bbf17f_a503_4a49_8454_3216c996dfd4_Class45 ( obj_3926dea9_02cc_4456_a37b_ca39f2bac99d o )  ) ) ( type_87bbf17f_a503_4a49_8454_3216c996dfd4_Class12 ( obj_3926dea9_02cc_4456_a37b_ca39f2bac99d o )  ) ) ( type_87bbf17f_a503_4a49_8454_3216c996dfd4_Class55 ( obj_3926dea9_02cc_4456_a37b_ca39f2bac99d o )  ) ) ( type_87bbf17f_a503_4a49_8454_3216c996dfd4_Class33 ( obj_3926dea9_02cc_4456_a37b_ca39f2bac99d o )  ) ) ( type_87bbf17f_a503_4a49_8454_3216c996dfd4_Class22 ( obj_3926dea9_02cc_4456_a37b_ca39f2bac99d o )  ) ) ( type_87bbf17f_a503_4a49_8454_3216c996dfd4_Class29 ( obj_3926dea9_02cc_4456_a37b_ca39f2bac99d o )  ) ) ( type_87bbf17f_a503_4a49_8454_3216c996dfd4_Class39 ( obj_3926dea9_02cc_4456_a37b_ca39f2bac99d o )  ) ) ( type_87bbf17f_a503_4a49_8454_3216c996dfd4_Class50 ( obj_3926dea9_02cc_4456_a37b_ca39f2bac99d o )  ) ) ( type_87bbf17f_a503_4a49_8454_3216c996dfd4_Class41 ( obj_3926dea9_02cc_4456_a37b_ca39f2bac99d o )  ) )):named c6))
(assert (! (exists ((o Int)) ( type_87bbf17f_a503_4a49_8454_3216c996dfd4_Class15 ( obj_3926dea9_02cc_4456_a37b_ca39f2bac99d o )  ) ):named c7))
(assert (! (exists ((o Int)) (and (and (and (and (and ( type_87bbf17f_a503_4a49_8454_3216c996dfd4_Class16 ( obj_3926dea9_02cc_4456_a37b_ca39f2bac99d o )  )  ( type_87bbf17f_a503_4a49_8454_3216c996dfd4_Class45 ( obj_3926dea9_02cc_4456_a37b_ca39f2bac99d o )  ) ) ( type_87bbf17f_a503_4a49_8454_3216c996dfd4_Class12 ( obj_3926dea9_02cc_4456_a37b_ca39f2bac99d o )  ) ) ( type_87bbf17f_a503_4a49_8454_3216c996dfd4_Class33 ( obj_3926dea9_02cc_4456_a37b_ca39f2bac99d o )  ) ) ( type_87bbf17f_a503_4a49_8454_3216c996dfd4_Class22 ( obj_3926dea9_02cc_4456_a37b_ca39f2bac99d o )  ) ) ( type_87bbf17f_a503_4a49_8454_3216c996dfd4_Class39 ( obj_3926dea9_02cc_4456_a37b_ca39f2bac99d o )  ) )):named c8))
(assert (! (exists ((o Int)) ( type_87bbf17f_a503_4a49_8454_3216c996dfd4_Class17 ( obj_3926dea9_02cc_4456_a37b_ca39f2bac99d o )  ) ):named c9))
(assert (! (exists ((o Int)) (and (and (and ( type_87bbf17f_a503_4a49_8454_3216c996dfd4_Class18 ( obj_3926dea9_02cc_4456_a37b_ca39f2bac99d o )  )  ( type_87bbf17f_a503_4a49_8454_3216c996dfd4_Class25 ( obj_3926dea9_02cc_4456_a37b_ca39f2bac99d o )  ) ) ( type_87bbf17f_a503_4a49_8454_3216c996dfd4_Class24 ( obj_3926dea9_02cc_4456_a37b_ca39f2bac99d o )  ) ) ( type_87bbf17f_a503_4a49_8454_3216c996dfd4_Class39 ( obj_3926dea9_02cc_4456_a37b_ca39f2bac99d o )  ) )):named c10))
(assert (! (exists ((o Int)) (and (and (and (and (and (and (and (and (and ( type_87bbf17f_a503_4a49_8454_3216c996dfd4_Class19 ( obj_3926dea9_02cc_4456_a37b_ca39f2bac99d o )  )  ( type_87bbf17f_a503_4a49_8454_3216c996dfd4_Class45 ( obj_3926dea9_02cc_4456_a37b_ca39f2bac99d o )  ) ) ( type_87bbf17f_a503_4a49_8454_3216c996dfd4_Class12 ( obj_3926dea9_02cc_4456_a37b_ca39f2bac99d o )  ) ) ( type_87bbf17f_a503_4a49_8454_3216c996dfd4_Class55 ( obj_3926dea9_02cc_4456_a37b_ca39f2bac99d o )  ) ) ( type_87bbf17f_a503_4a49_8454_3216c996dfd4_Class33 ( obj_3926dea9_02cc_4456_a37b_ca39f2bac99d o )  ) ) ( type_87bbf17f_a503_4a49_8454_3216c996dfd4_Class22 ( obj_3926dea9_02cc_4456_a37b_ca39f2bac99d o )  ) ) ( type_87bbf17f_a503_4a49_8454_3216c996dfd4_Class29 ( obj_3926dea9_02cc_4456_a37b_ca39f2bac99d o )  ) ) ( type_87bbf17f_a503_4a49_8454_3216c996dfd4_Class39 ( obj_3926dea9_02cc_4456_a37b_ca39f2bac99d o )  ) ) ( type_87bbf17f_a503_4a49_8454_3216c996dfd4_Class50 ( obj_3926dea9_02cc_4456_a37b_ca39f2bac99d o )  ) ) ( type_87bbf17f_a503_4a49_8454_3216c996dfd4_Class41 ( obj_3926dea9_02cc_4456_a37b_ca39f2bac99d o )  ) )):named c11))
(assert (! (exists ((o Int)) ( type_87bbf17f_a503_4a49_8454_3216c996dfd4_Class2 ( obj_3926dea9_02cc_4456_a37b_ca39f2bac99d o )  ) ):named c12))
(assert (! (exists ((o Int)) ( type_87bbf17f_a503_4a49_8454_3216c996dfd4_Class20 ( obj_3926dea9_02cc_4456_a37b_ca39f2bac99d o )  ) ):named c13))
(assert (! (exists ((o Int)) (and (and (and (and (and (and (and (and (and ( type_87bbf17f_a503_4a49_8454_3216c996dfd4_Class21 ( obj_3926dea9_02cc_4456_a37b_ca39f2bac99d o )  )  ( type_87bbf17f_a503_4a49_8454_3216c996dfd4_Class45 ( obj_3926dea9_02cc_4456_a37b_ca39f2bac99d o )  ) ) ( type_87bbf17f_a503_4a49_8454_3216c996dfd4_Class12 ( obj_3926dea9_02cc_4456_a37b_ca39f2bac99d o )  ) ) ( type_87bbf17f_a503_4a49_8454_3216c996dfd4_Class33 ( obj_3926dea9_02cc_4456_a37b_ca39f2bac99d o )  ) ) ( type_87bbf17f_a503_4a49_8454_3216c996dfd4_Class22 ( obj_3926dea9_02cc_4456_a37b_ca39f2bac99d o )  ) ) ( type_87bbf17f_a503_4a49_8454_3216c996dfd4_Class16 ( obj_3926dea9_02cc_4456_a37b_ca39f2bac99d o )  ) ) ( type_87bbf17f_a503_4a49_8454_3216c996dfd4_Class29 ( obj_3926dea9_02cc_4456_a37b_ca39f2bac99d o )  ) ) ( type_87bbf17f_a503_4a49_8454_3216c996dfd4_Class39 ( obj_3926dea9_02cc_4456_a37b_ca39f2bac99d o )  ) ) ( type_87bbf17f_a503_4a49_8454_3216c996dfd4_Class41 ( obj_3926dea9_02cc_4456_a37b_ca39f2bac99d o )  ) ) ( type_87bbf17f_a503_4a49_8454_3216c996dfd4_Class51 ( obj_3926dea9_02cc_4456_a37b_ca39f2bac99d o )  ) )):named c14))
(assert (! (exists ((o Int)) (and ( type_87bbf17f_a503_4a49_8454_3216c996dfd4_Class22 ( obj_3926dea9_02cc_4456_a37b_ca39f2bac99d o )  )  ( type_87bbf17f_a503_4a49_8454_3216c996dfd4_Class39 ( obj_3926dea9_02cc_4456_a37b_ca39f2bac99d o )  ) )):named c15))
(assert (! (exists ((o Int)) (and (and (and (and ( type_87bbf17f_a503_4a49_8454_3216c996dfd4_Class23 ( obj_3926dea9_02cc_4456_a37b_ca39f2bac99d o )  )  ( type_87bbf17f_a503_4a49_8454_3216c996dfd4_Class25 ( obj_3926dea9_02cc_4456_a37b_ca39f2bac99d o )  ) ) ( type_87bbf17f_a503_4a49_8454_3216c996dfd4_Class24 ( obj_3926dea9_02cc_4456_a37b_ca39f2bac99d o )  ) ) ( type_87bbf17f_a503_4a49_8454_3216c996dfd4_Class39 ( obj_3926dea9_02cc_4456_a37b_ca39f2bac99d o )  ) ) ( type_87bbf17f_a503_4a49_8454_3216c996dfd4_Class5 ( obj_3926dea9_02cc_4456_a37b_ca39f2bac99d o )  ) )):named c16))
(assert (! (exists ((o Int)) (and (and ( type_87bbf17f_a503_4a49_8454_3216c996dfd4_Class24 ( obj_3926dea9_02cc_4456_a37b_ca39f2bac99d o )  )  ( type_87bbf17f_a503_4a49_8454_3216c996dfd4_Class25 ( obj_3926dea9_02cc_4456_a37b_ca39f2bac99d o )  ) ) ( type_87bbf17f_a503_4a49_8454_3216c996dfd4_Class39 ( obj_3926dea9_02cc_4456_a37b_ca39f2bac99d o )  ) )):named c17))
(assert (! (exists ((o Int)) (and ( type_87bbf17f_a503_4a49_8454_3216c996dfd4_Class25 ( obj_3926dea9_02cc_4456_a37b_ca39f2bac99d o )  )  ( type_87bbf17f_a503_4a49_8454_3216c996dfd4_Class39 ( obj_3926dea9_02cc_4456_a37b_ca39f2bac99d o )  ) )):named c18))
(assert (! (exists ((o Int)) ( type_87bbf17f_a503_4a49_8454_3216c996dfd4_Class26 ( obj_3926dea9_02cc_4456_a37b_ca39f2bac99d o )  ) ):named c19))
(assert (! (exists ((o Int)) ( type_87bbf17f_a503_4a49_8454_3216c996dfd4_Class27 ( obj_3926dea9_02cc_4456_a37b_ca39f2bac99d o )  ) ):named c20))
(assert (! (exists ((o Int)) (and (and (and (and (and (and (and ( type_87bbf17f_a503_4a49_8454_3216c996dfd4_Class28 ( obj_3926dea9_02cc_4456_a37b_ca39f2bac99d o )  )  ( type_87bbf17f_a503_4a49_8454_3216c996dfd4_Class45 ( obj_3926dea9_02cc_4456_a37b_ca39f2bac99d o )  ) ) ( type_87bbf17f_a503_4a49_8454_3216c996dfd4_Class12 ( obj_3926dea9_02cc_4456_a37b_ca39f2bac99d o )  ) ) ( type_87bbf17f_a503_4a49_8454_3216c996dfd4_Class33 ( obj_3926dea9_02cc_4456_a37b_ca39f2bac99d o )  ) ) ( type_87bbf17f_a503_4a49_8454_3216c996dfd4_Class22 ( obj_3926dea9_02cc_4456_a37b_ca39f2bac99d o )  ) ) ( type_87bbf17f_a503_4a49_8454_3216c996dfd4_Class29 ( obj_3926dea9_02cc_4456_a37b_ca39f2bac99d o )  ) ) ( type_87bbf17f_a503_4a49_8454_3216c996dfd4_Class39 ( obj_3926dea9_02cc_4456_a37b_ca39f2bac99d o )  ) ) ( type_87bbf17f_a503_4a49_8454_3216c996dfd4_Class41 ( obj_3926dea9_02cc_4456_a37b_ca39f2bac99d o )  ) )):named c21))
(assert (! (exists ((o Int)) (and (and (and (and (and (and ( type_87bbf17f_a503_4a49_8454_3216c996dfd4_Class29 ( obj_3926dea9_02cc_4456_a37b_ca39f2bac99d o )  )  ( type_87bbf17f_a503_4a49_8454_3216c996dfd4_Class45 ( obj_3926dea9_02cc_4456_a37b_ca39f2bac99d o )  ) ) ( type_87bbf17f_a503_4a49_8454_3216c996dfd4_Class12 ( obj_3926dea9_02cc_4456_a37b_ca39f2bac99d o )  ) ) ( type_87bbf17f_a503_4a49_8454_3216c996dfd4_Class33 ( obj_3926dea9_02cc_4456_a37b_ca39f2bac99d o )  ) ) ( type_87bbf17f_a503_4a49_8454_3216c996dfd4_Class22 ( obj_3926dea9_02cc_4456_a37b_ca39f2bac99d o )  ) ) ( type_87bbf17f_a503_4a49_8454_3216c996dfd4_Class39 ( obj_3926dea9_02cc_4456_a37b_ca39f2bac99d o )  ) ) ( type_87bbf17f_a503_4a49_8454_3216c996dfd4_Class41 ( obj_3926dea9_02cc_4456_a37b_ca39f2bac99d o )  ) )):named c22))
(assert (! (exists ((o Int)) (and (and (and ( type_87bbf17f_a503_4a49_8454_3216c996dfd4_Class3 ( obj_3926dea9_02cc_4456_a37b_ca39f2bac99d o )  )  ( type_87bbf17f_a503_4a49_8454_3216c996dfd4_Class25 ( obj_3926dea9_02cc_4456_a37b_ca39f2bac99d o )  ) ) ( type_87bbf17f_a503_4a49_8454_3216c996dfd4_Class24 ( obj_3926dea9_02cc_4456_a37b_ca39f2bac99d o )  ) ) ( type_87bbf17f_a503_4a49_8454_3216c996dfd4_Class39 ( obj_3926dea9_02cc_4456_a37b_ca39f2bac99d o )  ) )):named c23))
(assert (! (exists ((o Int)) (and ( type_87bbf17f_a503_4a49_8454_3216c996dfd4_Class30 ( obj_3926dea9_02cc_4456_a37b_ca39f2bac99d o )  )  ( type_87bbf17f_a503_4a49_8454_3216c996dfd4_Class39 ( obj_3926dea9_02cc_4456_a37b_ca39f2bac99d o )  ) )):named c24))
(assert (! (exists ((o Int)) (and (and (and (and (and ( type_87bbf17f_a503_4a49_8454_3216c996dfd4_Class31 ( obj_3926dea9_02cc_4456_a37b_ca39f2bac99d o )  )  ( type_87bbf17f_a503_4a49_8454_3216c996dfd4_Class45 ( obj_3926dea9_02cc_4456_a37b_ca39f2bac99d o )  ) ) ( type_87bbf17f_a503_4a49_8454_3216c996dfd4_Class12 ( obj_3926dea9_02cc_4456_a37b_ca39f2bac99d o )  ) ) ( type_87bbf17f_a503_4a49_8454_3216c996dfd4_Class33 ( obj_3926dea9_02cc_4456_a37b_ca39f2bac99d o )  ) ) ( type_87bbf17f_a503_4a49_8454_3216c996dfd4_Class22 ( obj_3926dea9_02cc_4456_a37b_ca39f2bac99d o )  ) ) ( type_87bbf17f_a503_4a49_8454_3216c996dfd4_Class39 ( obj_3926dea9_02cc_4456_a37b_ca39f2bac99d o )  ) )):named c25))
(assert (! (exists ((o Int)) ( type_87bbf17f_a503_4a49_8454_3216c996dfd4_Class32 ( obj_3926dea9_02cc_4456_a37b_ca39f2bac99d o )  ) ):named c26))
(assert (! (exists ((o Int)) (and (and ( type_87bbf17f_a503_4a49_8454_3216c996dfd4_Class33 ( obj_3926dea9_02cc_4456_a37b_ca39f2bac99d o )  )  ( type_87bbf17f_a503_4a49_8454_3216c996dfd4_Class22 ( obj_3926dea9_02cc_4456_a37b_ca39f2bac99d o )  ) ) ( type_87bbf17f_a503_4a49_8454_3216c996dfd4_Class39 ( obj_3926dea9_02cc_4456_a37b_ca39f2bac99d o )  ) )):named c27))
(assert (! (exists ((o Int)) (and (and (and ( type_87bbf17f_a503_4a49_8454_3216c996dfd4_Class34 ( obj_3926dea9_02cc_4456_a37b_ca39f2bac99d o )  )  ( type_87bbf17f_a503_4a49_8454_3216c996dfd4_Class25 ( obj_3926dea9_02cc_4456_a37b_ca39f2bac99d o )  ) ) ( type_87bbf17f_a503_4a49_8454_3216c996dfd4_Class24 ( obj_3926dea9_02cc_4456_a37b_ca39f2bac99d o )  ) ) ( type_87bbf17f_a503_4a49_8454_3216c996dfd4_Class39 ( obj_3926dea9_02cc_4456_a37b_ca39f2bac99d o )  ) )):named c28))
(assert (! (exists ((o Int)) (and (and ( type_87bbf17f_a503_4a49_8454_3216c996dfd4_Class35 ( obj_3926dea9_02cc_4456_a37b_ca39f2bac99d o )  )  ( type_87bbf17f_a503_4a49_8454_3216c996dfd4_Class39 ( obj_3926dea9_02cc_4456_a37b_ca39f2bac99d o )  ) ) ( type_87bbf17f_a503_4a49_8454_3216c996dfd4_Class30 ( obj_3926dea9_02cc_4456_a37b_ca39f2bac99d o )  ) )):named c29))
(assert (! (exists ((o Int)) ( type_87bbf17f_a503_4a49_8454_3216c996dfd4_Class36 ( obj_3926dea9_02cc_4456_a37b_ca39f2bac99d o )  ) ):named c30))
(assert (! (exists ((o Int)) ( type_87bbf17f_a503_4a49_8454_3216c996dfd4_Class37 ( obj_3926dea9_02cc_4456_a37b_ca39f2bac99d o )  ) ):named c31))
(assert (! (exists ((o Int)) ( type_87bbf17f_a503_4a49_8454_3216c996dfd4_Class38 ( obj_3926dea9_02cc_4456_a37b_ca39f2bac99d o )  ) ):named c32))
(assert (! (exists ((o Int)) ( type_87bbf17f_a503_4a49_8454_3216c996dfd4_Class39 ( obj_3926dea9_02cc_4456_a37b_ca39f2bac99d o )  ) ):named c33))
(assert (! (exists ((o Int)) ( type_87bbf17f_a503_4a49_8454_3216c996dfd4_Class4 ( obj_3926dea9_02cc_4456_a37b_ca39f2bac99d o )  ) ):named c34))
(assert (! (exists ((o Int)) (and (and (and (and (and (and (and (and (and ( type_87bbf17f_a503_4a49_8454_3216c996dfd4_Class40 ( obj_3926dea9_02cc_4456_a37b_ca39f2bac99d o )  )  ( type_87bbf17f_a503_4a49_8454_3216c996dfd4_Class45 ( obj_3926dea9_02cc_4456_a37b_ca39f2bac99d o )  ) ) ( type_87bbf17f_a503_4a49_8454_3216c996dfd4_Class12 ( obj_3926dea9_02cc_4456_a37b_ca39f2bac99d o )  ) ) ( type_87bbf17f_a503_4a49_8454_3216c996dfd4_Class55 ( obj_3926dea9_02cc_4456_a37b_ca39f2bac99d o )  ) ) ( type_87bbf17f_a503_4a49_8454_3216c996dfd4_Class33 ( obj_3926dea9_02cc_4456_a37b_ca39f2bac99d o )  ) ) ( type_87bbf17f_a503_4a49_8454_3216c996dfd4_Class22 ( obj_3926dea9_02cc_4456_a37b_ca39f2bac99d o )  ) ) ( type_87bbf17f_a503_4a49_8454_3216c996dfd4_Class29 ( obj_3926dea9_02cc_4456_a37b_ca39f2bac99d o )  ) ) ( type_87bbf17f_a503_4a49_8454_3216c996dfd4_Class39 ( obj_3926dea9_02cc_4456_a37b_ca39f2bac99d o )  ) ) ( type_87bbf17f_a503_4a49_8454_3216c996dfd4_Class50 ( obj_3926dea9_02cc_4456_a37b_ca39f2bac99d o )  ) ) ( type_87bbf17f_a503_4a49_8454_3216c996dfd4_Class41 ( obj_3926dea9_02cc_4456_a37b_ca39f2bac99d o )  ) )):named c35))
(assert (! (exists ((o Int)) (and (and (and (and (and ( type_87bbf17f_a503_4a49_8454_3216c996dfd4_Class41 ( obj_3926dea9_02cc_4456_a37b_ca39f2bac99d o )  )  ( type_87bbf17f_a503_4a49_8454_3216c996dfd4_Class45 ( obj_3926dea9_02cc_4456_a37b_ca39f2bac99d o )  ) ) ( type_87bbf17f_a503_4a49_8454_3216c996dfd4_Class12 ( obj_3926dea9_02cc_4456_a37b_ca39f2bac99d o )  ) ) ( type_87bbf17f_a503_4a49_8454_3216c996dfd4_Class33 ( obj_3926dea9_02cc_4456_a37b_ca39f2bac99d o )  ) ) ( type_87bbf17f_a503_4a49_8454_3216c996dfd4_Class22 ( obj_3926dea9_02cc_4456_a37b_ca39f2bac99d o )  ) ) ( type_87bbf17f_a503_4a49_8454_3216c996dfd4_Class39 ( obj_3926dea9_02cc_4456_a37b_ca39f2bac99d o )  ) )):named c36))
(assert (! (exists ((o Int)) (and ( type_87bbf17f_a503_4a49_8454_3216c996dfd4_Class42 ( obj_3926dea9_02cc_4456_a37b_ca39f2bac99d o )  )  ( type_87bbf17f_a503_4a49_8454_3216c996dfd4_Class39 ( obj_3926dea9_02cc_4456_a37b_ca39f2bac99d o )  ) )):named c37))
(assert (! (exists ((o Int)) ( type_87bbf17f_a503_4a49_8454_3216c996dfd4_Class43 ( obj_3926dea9_02cc_4456_a37b_ca39f2bac99d o )  ) ):named c38))
(assert (! (exists ((o Int)) (and (and (and (and (and (and (and ( type_87bbf17f_a503_4a49_8454_3216c996dfd4_Class44 ( obj_3926dea9_02cc_4456_a37b_ca39f2bac99d o )  )  ( type_87bbf17f_a503_4a49_8454_3216c996dfd4_Class45 ( obj_3926dea9_02cc_4456_a37b_ca39f2bac99d o )  ) ) ( type_87bbf17f_a503_4a49_8454_3216c996dfd4_Class12 ( obj_3926dea9_02cc_4456_a37b_ca39f2bac99d o )  ) ) ( type_87bbf17f_a503_4a49_8454_3216c996dfd4_Class33 ( obj_3926dea9_02cc_4456_a37b_ca39f2bac99d o )  ) ) ( type_87bbf17f_a503_4a49_8454_3216c996dfd4_Class22 ( obj_3926dea9_02cc_4456_a37b_ca39f2bac99d o )  ) ) ( type_87bbf17f_a503_4a49_8454_3216c996dfd4_Class29 ( obj_3926dea9_02cc_4456_a37b_ca39f2bac99d o )  ) ) ( type_87bbf17f_a503_4a49_8454_3216c996dfd4_Class39 ( obj_3926dea9_02cc_4456_a37b_ca39f2bac99d o )  ) ) ( type_87bbf17f_a503_4a49_8454_3216c996dfd4_Class41 ( obj_3926dea9_02cc_4456_a37b_ca39f2bac99d o )  ) )):named c39))
(assert (! (exists ((o Int)) (and (and (and (and ( type_87bbf17f_a503_4a49_8454_3216c996dfd4_Class45 ( obj_3926dea9_02cc_4456_a37b_ca39f2bac99d o )  )  ( type_87bbf17f_a503_4a49_8454_3216c996dfd4_Class12 ( obj_3926dea9_02cc_4456_a37b_ca39f2bac99d o )  ) ) ( type_87bbf17f_a503_4a49_8454_3216c996dfd4_Class33 ( obj_3926dea9_02cc_4456_a37b_ca39f2bac99d o )  ) ) ( type_87bbf17f_a503_4a49_8454_3216c996dfd4_Class22 ( obj_3926dea9_02cc_4456_a37b_ca39f2bac99d o )  ) ) ( type_87bbf17f_a503_4a49_8454_3216c996dfd4_Class39 ( obj_3926dea9_02cc_4456_a37b_ca39f2bac99d o )  ) )):named c40))
(assert (! (exists ((o Int)) (and (and ( type_87bbf17f_a503_4a49_8454_3216c996dfd4_Class46 ( obj_3926dea9_02cc_4456_a37b_ca39f2bac99d o )  )  ( type_87bbf17f_a503_4a49_8454_3216c996dfd4_Class39 ( obj_3926dea9_02cc_4456_a37b_ca39f2bac99d o )  ) ) ( type_87bbf17f_a503_4a49_8454_3216c996dfd4_Class5 ( obj_3926dea9_02cc_4456_a37b_ca39f2bac99d o )  ) )):named c41))
(assert (! (exists ((o Int)) ( type_87bbf17f_a503_4a49_8454_3216c996dfd4_Class47 ( obj_3926dea9_02cc_4456_a37b_ca39f2bac99d o )  ) ):named c42))
(assert (! (exists ((o Int)) (and (and (and (and (and (and (and (and (and ( type_87bbf17f_a503_4a49_8454_3216c996dfd4_Class48 ( obj_3926dea9_02cc_4456_a37b_ca39f2bac99d o )  )  ( type_87bbf17f_a503_4a49_8454_3216c996dfd4_Class45 ( obj_3926dea9_02cc_4456_a37b_ca39f2bac99d o )  ) ) ( type_87bbf17f_a503_4a49_8454_3216c996dfd4_Class12 ( obj_3926dea9_02cc_4456_a37b_ca39f2bac99d o )  ) ) ( type_87bbf17f_a503_4a49_8454_3216c996dfd4_Class55 ( obj_3926dea9_02cc_4456_a37b_ca39f2bac99d o )  ) ) ( type_87bbf17f_a503_4a49_8454_3216c996dfd4_Class33 ( obj_3926dea9_02cc_4456_a37b_ca39f2bac99d o )  ) ) ( type_87bbf17f_a503_4a49_8454_3216c996dfd4_Class22 ( obj_3926dea9_02cc_4456_a37b_ca39f2bac99d o )  ) ) ( type_87bbf17f_a503_4a49_8454_3216c996dfd4_Class29 ( obj_3926dea9_02cc_4456_a37b_ca39f2bac99d o )  ) ) ( type_87bbf17f_a503_4a49_8454_3216c996dfd4_Class39 ( obj_3926dea9_02cc_4456_a37b_ca39f2bac99d o )  ) ) ( type_87bbf17f_a503_4a49_8454_3216c996dfd4_Class50 ( obj_3926dea9_02cc_4456_a37b_ca39f2bac99d o )  ) ) ( type_87bbf17f_a503_4a49_8454_3216c996dfd4_Class41 ( obj_3926dea9_02cc_4456_a37b_ca39f2bac99d o )  ) )):named c43))
(assert (! (exists ((o Int)) (and (and (and (and (and (and (and (and (and ( type_87bbf17f_a503_4a49_8454_3216c996dfd4_Class49 ( obj_3926dea9_02cc_4456_a37b_ca39f2bac99d o )  )  ( type_87bbf17f_a503_4a49_8454_3216c996dfd4_Class45 ( obj_3926dea9_02cc_4456_a37b_ca39f2bac99d o )  ) ) ( type_87bbf17f_a503_4a49_8454_3216c996dfd4_Class12 ( obj_3926dea9_02cc_4456_a37b_ca39f2bac99d o )  ) ) ( type_87bbf17f_a503_4a49_8454_3216c996dfd4_Class55 ( obj_3926dea9_02cc_4456_a37b_ca39f2bac99d o )  ) ) ( type_87bbf17f_a503_4a49_8454_3216c996dfd4_Class33 ( obj_3926dea9_02cc_4456_a37b_ca39f2bac99d o )  ) ) ( type_87bbf17f_a503_4a49_8454_3216c996dfd4_Class22 ( obj_3926dea9_02cc_4456_a37b_ca39f2bac99d o )  ) ) ( type_87bbf17f_a503_4a49_8454_3216c996dfd4_Class29 ( obj_3926dea9_02cc_4456_a37b_ca39f2bac99d o )  ) ) ( type_87bbf17f_a503_4a49_8454_3216c996dfd4_Class39 ( obj_3926dea9_02cc_4456_a37b_ca39f2bac99d o )  ) ) ( type_87bbf17f_a503_4a49_8454_3216c996dfd4_Class50 ( obj_3926dea9_02cc_4456_a37b_ca39f2bac99d o )  ) ) ( type_87bbf17f_a503_4a49_8454_3216c996dfd4_Class41 ( obj_3926dea9_02cc_4456_a37b_ca39f2bac99d o )  ) )):named c44))
(assert (! (exists ((o Int)) (and ( type_87bbf17f_a503_4a49_8454_3216c996dfd4_Class5 ( obj_3926dea9_02cc_4456_a37b_ca39f2bac99d o )  )  ( type_87bbf17f_a503_4a49_8454_3216c996dfd4_Class39 ( obj_3926dea9_02cc_4456_a37b_ca39f2bac99d o )  ) )):named c45))
(assert (! (exists ((o Int)) (and (and (and (and (and (and (and (and ( type_87bbf17f_a503_4a49_8454_3216c996dfd4_Class50 ( obj_3926dea9_02cc_4456_a37b_ca39f2bac99d o )  )  ( type_87bbf17f_a503_4a49_8454_3216c996dfd4_Class45 ( obj_3926dea9_02cc_4456_a37b_ca39f2bac99d o )  ) ) ( type_87bbf17f_a503_4a49_8454_3216c996dfd4_Class12 ( obj_3926dea9_02cc_4456_a37b_ca39f2bac99d o )  ) ) ( type_87bbf17f_a503_4a49_8454_3216c996dfd4_Class55 ( obj_3926dea9_02cc_4456_a37b_ca39f2bac99d o )  ) ) ( type_87bbf17f_a503_4a49_8454_3216c996dfd4_Class33 ( obj_3926dea9_02cc_4456_a37b_ca39f2bac99d o )  ) ) ( type_87bbf17f_a503_4a49_8454_3216c996dfd4_Class22 ( obj_3926dea9_02cc_4456_a37b_ca39f2bac99d o )  ) ) ( type_87bbf17f_a503_4a49_8454_3216c996dfd4_Class29 ( obj_3926dea9_02cc_4456_a37b_ca39f2bac99d o )  ) ) ( type_87bbf17f_a503_4a49_8454_3216c996dfd4_Class39 ( obj_3926dea9_02cc_4456_a37b_ca39f2bac99d o )  ) ) ( type_87bbf17f_a503_4a49_8454_3216c996dfd4_Class41 ( obj_3926dea9_02cc_4456_a37b_ca39f2bac99d o )  ) )):named c46))
(assert (! (exists ((o Int)) (and (and (and (and (and (and ( type_87bbf17f_a503_4a49_8454_3216c996dfd4_Class51 ( obj_3926dea9_02cc_4456_a37b_ca39f2bac99d o )  )  ( type_87bbf17f_a503_4a49_8454_3216c996dfd4_Class45 ( obj_3926dea9_02cc_4456_a37b_ca39f2bac99d o )  ) ) ( type_87bbf17f_a503_4a49_8454_3216c996dfd4_Class12 ( obj_3926dea9_02cc_4456_a37b_ca39f2bac99d o )  ) ) ( type_87bbf17f_a503_4a49_8454_3216c996dfd4_Class33 ( obj_3926dea9_02cc_4456_a37b_ca39f2bac99d o )  ) ) ( type_87bbf17f_a503_4a49_8454_3216c996dfd4_Class22 ( obj_3926dea9_02cc_4456_a37b_ca39f2bac99d o )  ) ) ( type_87bbf17f_a503_4a49_8454_3216c996dfd4_Class16 ( obj_3926dea9_02cc_4456_a37b_ca39f2bac99d o )  ) ) ( type_87bbf17f_a503_4a49_8454_3216c996dfd4_Class39 ( obj_3926dea9_02cc_4456_a37b_ca39f2bac99d o )  ) )):named c47))
(assert (! (exists ((o Int)) (and (and (and (and (and ( type_87bbf17f_a503_4a49_8454_3216c996dfd4_Class52 ( obj_3926dea9_02cc_4456_a37b_ca39f2bac99d o )  )  ( type_87bbf17f_a503_4a49_8454_3216c996dfd4_Class45 ( obj_3926dea9_02cc_4456_a37b_ca39f2bac99d o )  ) ) ( type_87bbf17f_a503_4a49_8454_3216c996dfd4_Class12 ( obj_3926dea9_02cc_4456_a37b_ca39f2bac99d o )  ) ) ( type_87bbf17f_a503_4a49_8454_3216c996dfd4_Class33 ( obj_3926dea9_02cc_4456_a37b_ca39f2bac99d o )  ) ) ( type_87bbf17f_a503_4a49_8454_3216c996dfd4_Class22 ( obj_3926dea9_02cc_4456_a37b_ca39f2bac99d o )  ) ) ( type_87bbf17f_a503_4a49_8454_3216c996dfd4_Class39 ( obj_3926dea9_02cc_4456_a37b_ca39f2bac99d o )  ) )):named c48))
(assert (! (exists ((o Int)) ( type_87bbf17f_a503_4a49_8454_3216c996dfd4_Class53 ( obj_3926dea9_02cc_4456_a37b_ca39f2bac99d o )  ) ):named c49))
(assert (! (exists ((o Int)) ( type_87bbf17f_a503_4a49_8454_3216c996dfd4_Class54 ( obj_3926dea9_02cc_4456_a37b_ca39f2bac99d o )  ) ):named c50))
(assert (! (exists ((o Int)) (and (and (and (and (and (and (and ( type_87bbf17f_a503_4a49_8454_3216c996dfd4_Class55 ( obj_3926dea9_02cc_4456_a37b_ca39f2bac99d o )  )  ( type_87bbf17f_a503_4a49_8454_3216c996dfd4_Class45 ( obj_3926dea9_02cc_4456_a37b_ca39f2bac99d o )  ) ) ( type_87bbf17f_a503_4a49_8454_3216c996dfd4_Class12 ( obj_3926dea9_02cc_4456_a37b_ca39f2bac99d o )  ) ) ( type_87bbf17f_a503_4a49_8454_3216c996dfd4_Class33 ( obj_3926dea9_02cc_4456_a37b_ca39f2bac99d o )  ) ) ( type_87bbf17f_a503_4a49_8454_3216c996dfd4_Class22 ( obj_3926dea9_02cc_4456_a37b_ca39f2bac99d o )  ) ) ( type_87bbf17f_a503_4a49_8454_3216c996dfd4_Class29 ( obj_3926dea9_02cc_4456_a37b_ca39f2bac99d o )  ) ) ( type_87bbf17f_a503_4a49_8454_3216c996dfd4_Class39 ( obj_3926dea9_02cc_4456_a37b_ca39f2bac99d o )  ) ) ( type_87bbf17f_a503_4a49_8454_3216c996dfd4_Class41 ( obj_3926dea9_02cc_4456_a37b_ca39f2bac99d o )  ) )):named c51))
(assert (! (exists ((o Int)) ( type_87bbf17f_a503_4a49_8454_3216c996dfd4_Class6 ( obj_3926dea9_02cc_4456_a37b_ca39f2bac99d o )  ) ):named c52))
(assert (! (exists ((o Int)) (and (and (and (and (and (and (and (and (and ( type_87bbf17f_a503_4a49_8454_3216c996dfd4_Class7 ( obj_3926dea9_02cc_4456_a37b_ca39f2bac99d o )  )  ( type_87bbf17f_a503_4a49_8454_3216c996dfd4_Class45 ( obj_3926dea9_02cc_4456_a37b_ca39f2bac99d o )  ) ) ( type_87bbf17f_a503_4a49_8454_3216c996dfd4_Class12 ( obj_3926dea9_02cc_4456_a37b_ca39f2bac99d o )  ) ) ( type_87bbf17f_a503_4a49_8454_3216c996dfd4_Class55 ( obj_3926dea9_02cc_4456_a37b_ca39f2bac99d o )  ) ) ( type_87bbf17f_a503_4a49_8454_3216c996dfd4_Class33 ( obj_3926dea9_02cc_4456_a37b_ca39f2bac99d o )  ) ) ( type_87bbf17f_a503_4a49_8454_3216c996dfd4_Class22 ( obj_3926dea9_02cc_4456_a37b_ca39f2bac99d o )  ) ) ( type_87bbf17f_a503_4a49_8454_3216c996dfd4_Class29 ( obj_3926dea9_02cc_4456_a37b_ca39f2bac99d o )  ) ) ( type_87bbf17f_a503_4a49_8454_3216c996dfd4_Class39 ( obj_3926dea9_02cc_4456_a37b_ca39f2bac99d o )  ) ) ( type_87bbf17f_a503_4a49_8454_3216c996dfd4_Class50 ( obj_3926dea9_02cc_4456_a37b_ca39f2bac99d o )  ) ) ( type_87bbf17f_a503_4a49_8454_3216c996dfd4_Class41 ( obj_3926dea9_02cc_4456_a37b_ca39f2bac99d o )  ) )):named c53))
(assert (! (exists ((o Int)) (and ( type_87bbf17f_a503_4a49_8454_3216c996dfd4_Class8 ( obj_3926dea9_02cc_4456_a37b_ca39f2bac99d o )  )  ( type_87bbf17f_a503_4a49_8454_3216c996dfd4_Class39 ( obj_3926dea9_02cc_4456_a37b_ca39f2bac99d o )  ) )):named c54))
(assert (! (exists ((o Int)) ( type_87bbf17f_a503_4a49_8454_3216c996dfd4_Class9 ( obj_3926dea9_02cc_4456_a37b_ca39f2bac99d o )  ) ):named c55))

 ;end of formula 